NAME: instance_1040
TYPE: TSP
DIMENSION: 20
EDGE_WEIGHT_TYPE: EUC_2D
NODE_COORD_SECTION
0 49.95 59.60
1 17.56 58.95
2 65.90 42.74
3 24.02 92.68
4 37.48 94.71
5 11.46 53.31
6 73.13 49.17
7 69.68 71.16
8 18.70 79.74
9 86.02 46.06
10 78.20 94.19
11 44.02 84.06
12 47.91 64.68
13 47.45 82.09
14 0.11 66.35
15 91.21 70.12
16 6.01 33.80
17 93.49 71.04
18 66.44 37.13
19 89.76 72.88
EOF
